letting n_nurses=25
letting n_days=7
letting n_shift_types=4
letting max_covers=11
letting t_covers=61
letting covers=[1,0,0,0,11,0,2,0,2,9,0,0,0,2,10,0,9,2,0,0,0,0,0,0,2,0,11,0]
letting prefes=[1,1,1,1,3,1,3,1,2,1,1,1,1,1,1,1,3,1,3,1,1,1,1,1,1,1,1,1,1,1,3,3,3,1,3,1,2,1,1,1,1,1,3,3,3,1,3,1,1,1,3,3,1,1,3,3,3,1,3,3,3,1,3,1,2,4,4,4,3,1,3,3,3,1,3,1,3,1,3,3,3,1,3,3,3,1,3,3,3,1,3,1,2,1,1,1,3,1,3,3,3,1,3,1,3,1,3,3,3,1,3,3,3,1,3,3,3,1,3,1,2,1,1,1,3,1,3,3,3,1,3,1,3,1,3,3,3,1,3,3,3,3,3,3,3,3,3,3,2,1,1,1,3,3,3,3,3,3,3,3,3,3,3,3,3,3,3,3,3,1,3,3,3,1,3,1,2,1,1,1,3,1,3,3,3,1,3,1,3,1,3,3,3,1,3,3,1,1,3,3,3,1,3,1,2,1,1,1,1,1,3,3,3,1,3,1,1,1,3,3,1,1,3,3,3,3,3,3,3,3,3,3,2,1,1,1,3,3,3,3,3,3,3,3,3,3,3,3,3,3,3,3,3,3,3,3,3,3,3,3,2,4,4,4,3,3,3,3,3,3,3,3,3,3,3,3,3,3,3,3,1,1,3,3,3,1,3,1,2,1,1,1,1,1,3,3,3,1,3,1,1,1,3,3,1,1,3,3,1,1,3,3,2,1,2,1,2,1,1,1,1,1,3,3,2,1,2,1,1,1,3,3,1,1,3,3,3,1,1,1,2,1,2,1,2,4,4,4,3,1,1,1,2,1,2,1,3,1,1,1,3,1,1,1,3,1,1,1,3,1,3,1,2,1,1,1,3,1,1,1,3,1,3,1,3,1,1,1,3,1,1,1,3,1,1,1,3,1,3,1,2,1,1,1,3,1,1,1,3,1,3,1,3,1,1,1,3,1,1,1,3,1,3,3,3,1,3,1,1,1,1,1,3,1,3,3,3,1,3,1,3,1,3,3,3,1,3,3,3,1,3,3,2,1,2,1,1,1,1,1,3,1,3,3,2,1,2,1,3,1,3,3,3,1,3,3,3,1,3,3,3,1,3,1,2,1,1,1,3,1,3,3,3,1,3,1,3,1,3,3,3,1,3,3,3,3,3,3,3,3,3,3,1,1,1,1,3,3,3,3,3,3,3,3,3,3,3,3,3,3,3,3,3,3,3,3,3,3,3,3,2,4,4,4,3,3,3,3,3,3,3,3,3,3,3,3,3,3,3,3,3,1,3,3,2,1,2,1,1,1,1,1,3,1,3,3,2,1,2,1,3,1,3,3,3,1,3,3,3,1,3,3,2,1,2,1,1,1,1,1,3,1,3,3,2,1,2,1,3,1,3,3,3,1,3,3,3,1,3,3,3,1,3,1,2,4,4,4,3,1,3,3,3,1,3,1,3,1,3,3,3,1,3,3,3,1,1,1,3,1,3,1,2,1,1,1,3,1,1,1,3,1,3,1,3,1,1,1,3,1,1,1,3,1,3,3,3,1,3,1,2,1,1,1,3,1,3,3,3,1,3,1,3,1,3,3,3,1,3,3]
letting ub =  263
